237 300 108 81 245 171 243 22 207 225 300 252 51 105 4 266 48 265 281 93 16 138 44 20 245 145 175 293 2 151 112 6 239 271 139 184 141 133 257 99 110 256 103 160 60 106 125 160 123 158 252 138 47 295 209 43 191 83 35 193 285 198 250 224 220 88 159 60 273 115 211 82 122 13 241 234 170 117 93 292 26 44 129 73 91 38 167 33 172 254 225 157 151 175 80 71 14 290 182 286 156 92 67 277 156 59 210 26 228 54 17 253 150 198 77 240 287 296 272 158 249 249 14 99 123 145 221 188 186 155 174 41 298 292 70 154 51 279 179 30 33 247 34 182 144 111 173 182 106 196 40 106 144 105 256 18 2 229 206 187 83 131 280 132 122 49 37 224 27 267 5 111 214 39 44 109 201 268 291 58 164 82 163 59 238 118 129 239 46 86 126 180 216 105 64 89 153 100 65 231 67 69 94 32 107 137 192 59 105 234 116 20 15 30 78 253 200 206 243 245 291 68 177 258 224 240 47 128 91 111 111 209 231 204 292 90 40 184 148 